data/solutions/planning/wellformed/hard/weighting/wellformed_hard_instance86_gurobi.sol
Elapsed time: 1000.42
Nodes explored: 357323
Nodes left: 343251
Relative gap: 7.529
Upper bound: 5.56591013104e+11
Lower bound: 514687222806
C[0]=16890.0
C[1]=16309.0
C[2]=16306.0
C[3]=16235.0
C[4]=16225.0
C[5]=16210.0
C[6]=16186.0
C[7]=16147.0
C[8]=16082.0
C[9]=16058.0
C[10]=16028.0
C[11]=16005.0
C[12]=15994.0
C[13]=15973.0
C[14]=15493.0
C[15]=14958.0
C[16]=14867.0
C[17]=14730.0
C[18]=14681.0
C[19]=13954.0
C[20]=13850.0
C[21]=13844.0
C[22]=13808.0
C[23]=13428.0
C[24]=13192.0
y[0]=14
y[1]=1
y[2]=19
y[3]=19
y[4]=11
y[5]=5
y[6]=22
y[7]=1
y[8]=8
y[9]=9
y[10]=20
y[11]=24
y[12]=15
y[13]=1
y[14]=0
y[15]=7
y[16]=14
y[17]=5
y[18]=22
y[19]=6
y[20]=17
y[21]=18
y[22]=13
y[23]=1
y[24]=15
y[25]=12
y[26]=1
y[27]=8
y[28]=11
y[29]=10
y[30]=23
y[31]=3
y[32]=23
y[33]=5
y[34]=7
y[35]=18
y[36]=10
y[37]=0
y[38]=9
y[39]=23
y[40]=12
y[41]=18
y[42]=7
y[43]=1
y[44]=1
y[45]=0
y[46]=21
y[47]=14
y[48]=7
y[49]=17
y[50]=13
y[51]=14
y[52]=5
y[53]=7
y[54]=14
y[55]=12
y[56]=16
y[57]=16
y[58]=20
y[59]=6
y[60]=10
y[61]=0
y[62]=6
y[63]=7
y[64]=15
y[65]=7
y[66]=11
y[67]=2
y[68]=16
y[69]=0
y[70]=4
y[71]=12
y[72]=24
y[73]=8
y[74]=4
y[75]=9
y[76]=24
y[77]=19
y[78]=9
y[79]=9
y[80]=2
y[81]=1
y[82]=16
y[83]=19
y[84]=3
y[85]=2
y[86]=17
y[87]=20
y[88]=17
y[89]=9
y[90]=21
y[91]=18
y[92]=2
y[93]=16
y[94]=6
y[95]=15
y[96]=13
y[97]=6
y[98]=23
y[99]=10
y[100]=2
y[101]=15
y[102]=19
y[103]=19
y[104]=8
y[105]=6
y[106]=14
y[107]=11
y[108]=0
y[109]=4
y[110]=5
y[111]=24
y[112]=18
y[113]=6
y[114]=0
y[115]=3
y[116]=3
y[117]=9
y[118]=1
y[119]=20
y[120]=10
y[121]=18
y[122]=5
y[123]=22
y[124]=18
y[125]=6
y[126]=24
y[127]=12
y[128]=23
y[129]=13
y[130]=24
y[131]=10
y[132]=16
y[133]=15
y[134]=24
y[135]=4
y[136]=13
y[137]=19
y[138]=13
y[139]=0
y[140]=16
y[141]=15
y[142]=8
y[143]=24
y[144]=11
y[145]=3
y[146]=6
y[147]=24
y[148]=8
y[149]=16
y[150]=13
y[151]=10
y[152]=20
y[153]=0
y[154]=6
y[155]=8
y[156]=19
y[157]=2
y[158]=3
y[159]=5
y[160]=9
y[161]=9
y[162]=13
y[163]=5
y[164]=13
y[165]=20
y[166]=17
y[167]=22
y[168]=7
y[169]=12
y[170]=9
y[171]=6
y[172]=15
y[173]=20
y[174]=4
y[175]=23
y[176]=12
y[177]=13
y[178]=7
y[179]=14
y[180]=22
y[181]=20
y[182]=4
y[183]=4
y[184]=12
y[185]=15
y[186]=17
y[187]=8
y[188]=2
y[189]=4
y[190]=11
y[191]=7
y[192]=4
y[193]=11
y[194]=22
y[195]=15
y[196]=6
y[197]=11
y[198]=4
y[199]=2
y[200]=23
y[201]=12
y[202]=21
y[203]=3
y[204]=10
y[205]=10
y[206]=19
y[207]=5
y[208]=21
y[209]=0
y[210]=0
y[211]=24
y[212]=11
y[213]=6
y[214]=2
y[215]=2
y[216]=13
y[217]=0
y[218]=5
y[219]=19
y[220]=2
y[221]=6
y[222]=11
y[223]=21
y[224]=0
y[225]=4
y[226]=2
y[227]=10
y[228]=17
y[229]=8
y[230]=12
y[231]=2
y[232]=24
y[233]=14
y[234]=16
y[235]=24
y[236]=14
y[237]=13
y[238]=15
y[239]=7
y[240]=20
y[241]=7
y[242]=23
y[243]=1
y[244]=3
y[245]=9
y[246]=12
y[247]=7
y[248]=9
y[249]=23
y[250]=1
y[251]=12
y[252]=1
y[253]=5
y[254]=23
y[255]=3
y[256]=18
y[257]=14
y[258]=11
y[259]=1
y[260]=20
y[261]=16
y[262]=15
y[263]=10
y[264]=22
y[265]=13
y[266]=16
y[267]=12
y[268]=8
y[269]=5
y[270]=19
y[271]=4
y[272]=23
y[273]=15
y[274]=1
y[275]=8
y[276]=6
y[277]=17
y[278]=4
y[279]=24
y[280]=18
y[281]=1
y[282]=15
y[283]=12
y[284]=17
y[285]=24
y[286]=22
y[287]=14
y[288]=4
y[289]=3
y[290]=11
y[291]=11
y[292]=5
y[293]=7
y[294]=3
y[295]=4
y[296]=22
y[297]=22
y[298]=11
y[299]=6
y[300]=10
y[301]=8
y[302]=6
y[303]=1
y[304]=15
y[305]=1
y[306]=14
y[307]=13
y[308]=6
y[309]=8
y[310]=3
y[311]=14
y[312]=1
y[313]=18
y[314]=1
y[315]=15
y[316]=20
y[317]=0
y[318]=21
y[319]=10
y[320]=22
y[321]=2
y[322]=21
y[323]=11
y[324]=9
y[325]=16
y[326]=9
y[327]=4
y[328]=2
y[329]=15
y[330]=3
y[331]=11
y[332]=0
y[333]=8
y[334]=6
y[335]=18
y[336]=18
y[337]=20
y[338]=17
y[339]=22
y[340]=23
y[341]=8
y[342]=10
y[343]=13
y[344]=12
y[345]=24
y[346]=19
y[347]=9
y[348]=21
y[349]=20
y[350]=12
y[351]=24
y[352]=14
y[353]=17
y[354]=23
y[355]=21
y[356]=6
y[357]=18
y[358]=3
y[359]=21
y[360]=23
y[361]=22
y[362]=4
y[363]=3
y[364]=1
y[365]=23
y[366]=7
y[367]=14
y[368]=10
y[369]=1
y[370]=21
y[371]=14
y[372]=21
y[373]=22
y[374]=13
y[375]=8
y[376]=5
y[377]=6
y[378]=6
y[379]=3
y[380]=7
y[381]=19
y[382]=18
y[383]=17
y[384]=4
y[385]=19
y[386]=4
y[387]=9
y[388]=15
y[389]=6
y[390]=16
y[391]=11
y[392]=20
y[393]=6
y[394]=12
y[395]=24
y[396]=13
y[397]=17
y[398]=3
y[399]=20
