data/solutions/planning/wellformed/hard/weighting/wellformed_hard_instance86_gurobi.log

Gurobi 6.5.2 (linux64) logging started Sun Mar  4 11:47:08 2018

Changed value of parameter LogFile to data/solutions/planning/wellformed/hard/weighting/wellformed_hard_instance86_gurobi.log
   Prev: gurobi.log  Default: 
Changed value of parameter Threads to 1
   Prev: 0  Min: 0  Max: 1024  Default: 0
Optimize a model with 450 rows, 10026 columns and 20074 nonzeros
Coefficient statistics:
  Matrix range    [1e+00, 2e+03]
  Objective range [1e+00, 2e+07]
  Bounds range    [1e+00, 1e+00]
  RHS range       [1e+00, 1e+00]
Presolve removed 3 rows and 3 columns
Presolve time: 0.03s
Presolved: 447 rows, 10023 columns, 20069 nonzeros
Variable types: 0 continuous, 10023 integer (10000 binary)
Found heuristic solution: objective 6.433274e+12

Root relaxation: objective 5.146619e+11, 883 iterations, 0.02 seconds

    Nodes    |    Current Node    |     Objective Bounds      |     Work
 Expl Unexpl |  Obj  Depth IntInf | Incumbent    BestBd   Gap | It/Node Time

     0     0 5.1466e+11    0   65 6.4333e+12 5.1466e+11  92.0%     -    0s
     0     0 5.1466e+11    0   66 6.4333e+12 5.1466e+11  92.0%     -    0s
     0     0 5.1466e+11    0   76 6.4333e+12 5.1466e+11  92.0%     -    0s
     0     0 5.1466e+11    0   73 6.4333e+12 5.1466e+11  92.0%     -    0s
     0     0 5.1466e+11    0   66 6.4333e+12 5.1466e+11  92.0%     -    0s
     0     0 5.1466e+11    0   75 6.4333e+12 5.1466e+11  92.0%     -    1s
     0     0 5.1466e+11    0   70 6.4333e+12 5.1466e+11  92.0%     -    1s
     0     0 5.1466e+11    0   68 6.4333e+12 5.1466e+11  92.0%     -    1s
     0     0 5.1466e+11    0   67 6.4333e+12 5.1466e+11  92.0%     -    2s
     0     0 5.1466e+11    0   67 6.4333e+12 5.1466e+11  92.0%     -    2s
     0     2 5.1466e+11    0   61 6.4333e+12 5.1466e+11  92.0%     -    2s
   725   726 5.1630e+11  686   39 6.4333e+12 5.1466e+11  92.0%   9.5    5s
H  929   928                    1.521550e+12 5.1466e+11  66.2%   8.6    5s
H  993   992                    1.419570e+12 5.1466e+11  63.7%   8.5    5s
H 1173  1172                    9.519932e+11 5.1466e+11  45.9%   8.2    6s
  2090  1988 5.1630e+11  699   69 9.5199e+11 5.1466e+11  45.9%   7.7   10s
  2121  2010 5.1469e+11   26   41 9.5199e+11 5.1469e+11  45.9%  19.3   15s
  2688  2388 5.1524e+11  458   35 9.5199e+11 5.1469e+11  45.9%  18.2   20s
H 2931  2448                    7.385549e+11 5.1469e+11  30.3%  17.1   21s
H 3039  2425                    6.593340e+11 5.1469e+11  21.9%  16.7   22s
H 3066  2353                    6.457644e+11 5.1469e+11  20.3%  16.6   22s
H 3120  2303                    6.394729e+11 5.1469e+11  19.5%  16.4   23s
H 3147  2240                    6.369444e+11 5.1469e+11  19.2%  16.4   23s
  3314  2342 5.1552e+11  770   32 6.3694e+11 5.1469e+11  19.2%  16.0   25s
  3906  2686 5.1485e+11  397   41 6.3694e+11 5.1469e+11  19.2%  17.2   30s
  4365  2992 5.1485e+11  627   38 6.3694e+11 5.1469e+11  19.2%  18.7   35s
  4936  3221 5.2670e+11  170   41 6.3694e+11 5.1469e+11  19.2%  19.2   40s
  5545  3627 5.2670e+11  476   36 6.3694e+11 5.1469e+11  19.2%  18.7   45s
H 5746  3682                    6.352065e+11 5.1469e+11  19.0%  18.2   46s
  6978  4646 5.1484e+11  532   32 6.3521e+11 5.1469e+11  19.0%  16.4   50s
  8753  6392 5.1484e+11  847   36 6.3521e+11 5.1469e+11  19.0%  15.0   55s
H 9180  6731                    6.156677e+11 5.1469e+11  16.4%  14.7   56s
H 9349  6900                    6.152512e+11 5.1469e+11  16.3%  14.5   56s
 10202  7755 5.1486e+11  516   32 6.1525e+11 5.1469e+11  16.3%  14.0   70s
 11290  8717 5.1486e+11  783   34 6.1525e+11 5.1469e+11  16.3%  13.8   75s
H12678  9983                    6.152008e+11 5.1469e+11  16.3%  13.4   79s
 12744 10029 5.3128e+11  570   35 6.1520e+11 5.1469e+11  16.3%  13.5   80s
 14252 11429 5.2054e+11  996   39 6.1520e+11 5.1469e+11  16.3%  13.5   85s
H14760 11935                    6.151757e+11 5.1469e+11  16.3%  13.4   86s
H15592 12767                    6.150367e+11 5.1469e+11  16.3%  13.0   88s
 16240 13417 5.2054e+11 2980   41 6.1504e+11 5.1469e+11  16.3%  12.8   90s
 18527 15651 5.1519e+11 1508   41 6.1504e+11 5.1469e+11  16.3%  12.1   95s
 21004 17931 5.2509e+11  610   35 6.1504e+11 5.1469e+11  16.3%  11.4  100s
 23280 20155 5.2500e+11 2381   42 6.1504e+11 5.1469e+11  16.3%  10.9  105s
 25324 22072 infeasible 3972      6.1504e+11 5.1469e+11  16.3%  10.6  110s
H27123 23845                    6.150224e+11 5.1469e+11  16.3%  10.4  114s
 27159 23883 5.2481e+11  822   34 6.1502e+11 5.1469e+11  16.3%  10.4  115s
H27942 24663                    6.150224e+11 5.1469e+11  16.3%  10.4  116s
 28884 25583 5.2489e+11 1117   31 6.1502e+11 5.1469e+11  16.3%  10.5  120s
H30911 27561                    6.137163e+11 5.1469e+11  16.1%  10.3  124s
 30996 27648 5.2049e+11 2313   40 6.1372e+11 5.1469e+11  16.1%  10.3  125s
H31449 28085                    6.049063e+11 5.1469e+11  14.9%  10.2  126s
 32983 29526 5.3189e+11  430   36 6.0491e+11 5.1469e+11  14.9%  10.1  130s
 35349 31892 5.3189e+11  805   31 6.0491e+11 5.1469e+11  14.9%  10.0  135s
 36785 33156 5.3198e+11  973   27 6.0491e+11 5.1469e+11  14.9%  10.1  140s
 37329 33514 5.3203e+11 1040   25 6.0491e+11 5.1469e+11  14.9%  10.2  145s
 38640 34745 5.2060e+11 1521   39 6.0491e+11 5.1469e+11  14.9%  10.0  150s
 40934 36961 5.2448e+11 1159   40 6.0491e+11 5.1469e+11  14.9%   9.8  155s
H41563 37588                    5.941639e+11 5.1469e+11  13.4%   9.8  156s
 42866 38893 5.2448e+11 2879   42 5.9416e+11 5.1469e+11  13.4%   9.9  160s
 45022 40917 5.2345e+11 2096   42 5.9416e+11 5.1469e+11  13.4%   9.6  165s
 46657 42445 5.2272e+11  512   37 5.9416e+11 5.1469e+11  13.4%   9.6  170s
H48003 43705                    5.940423e+11 5.1469e+11  13.4%   9.4  172s
 48981 44685 5.2272e+11 2733   43 5.9404e+11 5.1469e+11  13.4%   9.4  175s
 51115 46758 5.2421e+11 1087   40 5.9404e+11 5.1469e+11  13.4%   9.2  180s
 53076 48716 5.2422e+11 2855   43 5.9404e+11 5.1469e+11  13.4%   9.2  185s
 55020 50597 5.2400e+11  881   34 5.9404e+11 5.1469e+11  13.4%   9.2  190s
H56612 52084                    5.935221e+11 5.1469e+11  13.3%   9.1  194s
 57007 52481 5.2463e+11 1521   44 5.9352e+11 5.1469e+11  13.3%   9.1  195s
 59088 54555 5.2463e+11 3404   42 5.9352e+11 5.1469e+11  13.3%   9.0  200s
 61394 56840 5.1846e+11 2442   43 5.9352e+11 5.1469e+11  13.3%   8.9  205s
H62888 58260                    5.932214e+11 5.1469e+11  13.2%   8.8  208s
H62915 58287                    5.871608e+11 5.1469e+11  12.3%   8.8  208s
 63579 58953 5.2161e+11  638   31 5.8716e+11 5.1469e+11  12.3%   8.8  210s
 65422 60795 5.2161e+11  880   35 5.8716e+11 5.1469e+11  12.3%   8.8  215s
H67510 62854                    5.871589e+11 5.1469e+11  12.3%   8.8  219s
 67555 62901 5.2083e+11 1582   39 5.8716e+11 5.1469e+11  12.3%   8.8  220s
H69900 65172                    5.851696e+11 5.1469e+11  12.0%   8.8  225s
 72546 67771 5.1829e+11 2817   42 5.8517e+11 5.1469e+11  12.0%   8.7  230s
 73433 68550 5.1821e+11  508   38 5.8517e+11 5.1469e+11  12.0%   8.7  235s
H73649 68764                    5.798455e+11 5.1469e+11  11.2%   8.7  236s
H74289 69404                    5.797740e+11 5.1469e+11  11.2%   8.6  237s
 75300 70417 5.1821e+11 2289   44 5.7977e+11 5.1469e+11  11.2%   8.6  240s
 77012 72052 5.1766e+11  344   43 5.7977e+11 5.1469e+11  11.2%   8.6  245s
 78958 73998 5.1766e+11  696   32 5.7977e+11 5.1469e+11  11.2%   8.6  250s
 80890 75737 5.2353e+11  333   52 5.7977e+11 5.1469e+11  11.2%   8.6  255s
 83440 78283 5.2353e+11 2709   35 5.7977e+11 5.1469e+11  11.2%   8.5  260s
 85360 80091 5.2395e+11 1128   38 5.7977e+11 5.1469e+11  11.2%   8.5  265s
H86650 81379                    5.796075e+11 5.1469e+11  11.2%   8.4  267s
H86652 81381                    5.795964e+11 5.1469e+11  11.2%   8.4  267s
H86654 81383                    5.795956e+11 5.1469e+11  11.2%   8.4  267s
H86658 81387                    5.709064e+11 5.1469e+11  9.85%   8.4  268s
 86758 81489 5.2395e+11 2525   39 5.7091e+11 5.1469e+11  9.85%   8.4  270s
 89000 83650 5.3240e+11 1620   43 5.7091e+11 5.1469e+11  9.85%   8.4  275s
 91629 86172 5.3618e+11 3682   38 5.7091e+11 5.1469e+11  9.85%   8.3  280s
 94189 88641 5.2725e+11 2403   39 5.7091e+11 5.1469e+11  9.85%   8.3  285s
 96378 90813 5.2506e+11 2072   39 5.7091e+11 5.1469e+11  9.85%   8.3  290s
 98291 92638 5.3459e+11  436   38 5.7091e+11 5.1469e+11  9.85%   8.3  295s
H98684 93027                    5.709054e+11 5.1469e+11  9.85%   8.3  295s
H100078 94421                    5.709053e+11 5.1469e+11  9.85%   8.3  298s
 100492 94832 5.3459e+11 2484   38 5.7091e+11 5.1469e+11  9.85%   8.3  300s
 101712 96006 5.3206e+11  618   36 5.7091e+11 5.1469e+11  9.85%   8.2  305s
H102372 96664                    5.684032e+11 5.1469e+11  9.45%   8.3  307s
 103109 97381 5.3210e+11  877   29 5.6840e+11 5.1469e+11  9.45%   8.3  310s
 104352 98564 5.3046e+11 1059   42 5.6840e+11 5.1469e+11  9.45%   8.3  315s
 106844 101023 5.2649e+11 1005   37 5.6840e+11 5.1469e+11  9.45%   8.2  320s
H107534 101711                    5.678463e+11 5.1469e+11  9.36%   8.2  321s
H107561 101738                    5.678461e+11 5.1469e+11  9.36%   8.2  321s
H107834 102011                    5.614908e+11 5.1469e+11  8.34%   8.2  322s
H108472 102649                    5.612643e+11 5.1469e+11  8.30%   8.2  324s
 108690 102849 5.2600e+11  367   39 5.6126e+11 5.1469e+11  8.30%   8.2  325s
 111065 105179 5.2601e+11 2521   41 5.6126e+11 5.1469e+11  8.30%   8.2  330s
 113174 107228 5.2535e+11 1610   40 5.6126e+11 5.1469e+11  8.30%   8.2  335s
 115005 109042 5.2538e+11 3184   36 5.6126e+11 5.1469e+11  8.30%   8.2  340s
 116689 110577 5.2564e+11  374   43 5.6126e+11 5.1469e+11  8.30%   8.2  345s
 118746 112630 5.2578e+11  725   33 5.6126e+11 5.1469e+11  8.30%   8.1  350s
 120427 114148 5.2587e+11  974   24 5.6126e+11 5.1469e+11  8.30%   8.2  355s
H120837 114450                    5.590838e+11 5.1469e+11  7.94%   8.3  357s
H120838 114451                    5.590340e+11 5.1469e+11  7.93%   8.3  358s
H120843 114452                    5.590157e+11 5.1469e+11  7.93%   8.3  358s
 121101 114601 5.2628e+11  426   40 5.5902e+11 5.1469e+11  7.93%   8.3  360s
 122776 116276 5.2628e+11 2008   40 5.5902e+11 5.1469e+11  7.93%   8.2  365s
 124519 117928 5.3023e+11  314   61 5.5902e+11 5.1469e+11  7.93%   8.2  370s
 126688 120096 5.3025e+11 2273   37 5.5902e+11 5.1469e+11  7.93%   8.2  375s
 128643 121967 5.2885e+11 1068   39 5.5902e+11 5.1469e+11  7.93%   8.2  380s
H129436 122758                    5.590157e+11 5.1469e+11  7.93%   8.2  381s
H130207 123529                    5.583615e+11 5.1469e+11  7.82%   8.2  383s
 130756 123993 5.2728e+11  367   37 5.5836e+11 5.1469e+11  7.82%   8.1  385s
 132969 126206 5.2728e+11 2435   40 5.5836e+11 5.1469e+11  7.82%   8.1  390s
 134475 127539 5.2756e+11  440   33 5.5836e+11 5.1469e+11  7.82%   8.1  395s
 136260 129324 5.2756e+11  799   33 5.5836e+11 5.1469e+11  7.82%   8.1  400s
 137560 130556 5.2993e+11  627   34 5.5836e+11 5.1469e+11  7.82%   8.1  405s
H138041 131035                    5.577197e+11 5.1469e+11  7.72%   8.1  405s
 140214 133204 5.2993e+11 2958   34 5.5772e+11 5.1469e+11  7.72%   8.1  410s
 142459 135376 5.2975e+11 2160   42 5.5772e+11 5.1469e+11  7.72%   8.1  415s
 144336 137165 5.3169e+11  499   39 5.5772e+11 5.1469e+11  7.72%   8.1  420s
 146498 139323 5.3171e+11 2435   39 5.5772e+11 5.1469e+11  7.72%   8.1  425s
 148701 141420 5.3099e+11 1710   41 5.5772e+11 5.1469e+11  7.72%   8.1  430s
H150401 143080                    5.577115e+11 5.1469e+11  7.71%   8.1  434s
H150406 143085                    5.577115e+11 5.1469e+11  7.71%   8.1  434s
H150408 143087                    5.577107e+11 5.1469e+11  7.71%   8.1  434s
 150447 143128 5.3094e+11  643   37 5.5771e+11 5.1469e+11  7.71%   8.1  435s
H151709 144384                    5.576929e+11 5.1469e+11  7.71%   8.1  438s
 152528 145184 5.3095e+11 2695   39 5.5769e+11 5.1469e+11  7.71%   8.1  440s
 154412 147009 5.3077e+11 2032   40 5.5769e+11 5.1469e+11  7.71%   8.0  445s
 156637 149085 5.3099e+11 1044   38 5.5769e+11 5.1469e+11  7.71%   8.0  450s
 158936 151362 5.3335e+11  320   40 5.5769e+11 5.1469e+11  7.71%   8.0  455s
 160534 152960 5.3336e+11  599   37 5.5769e+11 5.1469e+11  7.71%   8.0  460s
 162355 154677 5.3189e+11  525   41 5.5769e+11 5.1469e+11  7.71%   8.0  465s
H164072 156366                    5.568224e+11 5.1469e+11  7.57%   8.0  468s
 164596 156892 5.3190e+11 2552   36 5.5682e+11 5.1469e+11  7.57%   8.0  470s
 166512 158776 5.3149e+11 1865   40 5.5682e+11 5.1469e+11  7.57%   8.0  475s
 167997 160214 infeasible 2955      5.5682e+11 5.1469e+11  7.57%   8.1  480s
 168666 160759 5.3114e+11  423   39 5.5682e+11 5.1469e+11  7.57%   8.1  485s
 169607 161638 5.3115e+11  715   33 5.5682e+11 5.1469e+11  7.57%   8.1  490s
 171253 163284 5.3115e+11  953   32 5.5682e+11 5.1469e+11  7.57%   8.1  495s
H171496 163525                    5.568222e+11 5.1469e+11  7.57%   8.1  495s
 172983 164952 5.3153e+11  489   40 5.5682e+11 5.1469e+11  7.57%   8.1  500s
 175058 167025 5.3717e+11 2552   48 5.5682e+11 5.1469e+11  7.57%   8.1  505s
 176564 168482 5.3209e+11  879   36 5.5682e+11 5.1469e+11  7.57%   8.1  510s
 178384 170176 5.3386e+11  880   41 5.5682e+11 5.1469e+11  7.57%   8.1  515s
 180833 172582 5.2837e+11  313   39 5.5682e+11 5.1469e+11  7.57%   8.1  520s
 183188 174937 5.2841e+11 2382   40 5.5682e+11 5.1469e+11  7.57%   8.0  525s
 184953 176578 5.3518e+11  751   38 5.5682e+11 5.1469e+11  7.57%   8.0  530s
 186887 178512 5.3518e+11 2562   39 5.5682e+11 5.1469e+11  7.57%   8.0  535s
 188346 179884 5.3444e+11  597   41 5.5682e+11 5.1469e+11  7.57%   8.1  540s
H188543 180076                    5.568140e+11 5.1469e+11  7.57%   8.0  540s
H188880 180413                    5.567096e+11 5.1469e+11  7.55%   8.0  541s
 190596 182131 5.3446e+11 2631   35 5.5671e+11 5.1469e+11  7.55%   8.0  545s
 192849 184322 5.3353e+11 2054   41 5.5671e+11 5.1469e+11  7.55%   8.0  550s
 194482 185889 5.3334e+11  505   41 5.5671e+11 5.1469e+11  7.55%   8.0  555s
H196033 187438                    5.567094e+11 5.1469e+11  7.55%   8.0  558s
 196675 188060 5.3353e+11  467   39 5.5671e+11 5.1469e+11  7.55%   8.0  560s
 198939 190292 5.3353e+11 2519   39 5.5671e+11 5.1469e+11  7.55%   8.0  565s
 199994 191219 5.3516e+11  321   38 5.5671e+11 5.1469e+11  7.55%   8.0  570s
 201618 192838 5.4488e+11  604   37 5.5671e+11 5.1469e+11  7.55%   8.0  575s
 203073 194095 5.3463e+11  543   40 5.5671e+11 5.1469e+11  7.55%   8.0  580s
 205239 196257 5.3468e+11 1021   34 5.5671e+11 5.1469e+11  7.55%   8.0  585s
 207290 198274 5.3461e+11 1764   38 5.5671e+11 5.1469e+11  7.55%   8.0  590s
H208399 199359                    5.567093e+11 5.1469e+11  7.55%   8.1  593s
H208553 199504                    5.567052e+11 5.1469e+11  7.55%   8.1  593s
 208936 199837 5.2325e+11  298   38 5.5671e+11 5.1469e+11  7.55%   8.1  595s
 211190 202091 5.2325e+11 2375   37 5.5671e+11 5.1469e+11  7.55%   8.1  600s
 213462 204294 5.3921e+11 1917   42 5.5671e+11 5.1469e+11  7.55%   8.0  605s
H213625 204455                    5.567048e+11 5.1469e+11  7.55%   8.0  605s
 215727 206387 5.3584e+11  871   36 5.5670e+11 5.1469e+11  7.55%   8.0  610s
 217753 208396 5.4813e+11 2856   34 5.5670e+11 5.1469e+11  7.55%   8.0  615s
 220003 210580 5.3554e+11 2056   41 5.5670e+11 5.1469e+11  7.55%   8.0  620s
H220973 211517                    5.567048e+11 5.1469e+11  7.55%   8.0  621s
 221340 211823 5.3575e+11 3016   51 5.5670e+11 5.1469e+11  7.55%   8.0  625s
 222849 213266 5.3888e+11 1555   43 5.5670e+11 5.1469e+11  7.55%   8.0  630s
 225050 215359 5.3278e+11  673   39 5.5670e+11 5.1469e+11  7.55%   8.0  635s
 227160 217469 5.3278e+11 2622   38 5.5670e+11 5.1469e+11  7.55%   8.0  640s
 229320 219541 5.2877e+11 1491   41 5.5670e+11 5.1469e+11  7.55%   8.0  645s
 231630 221824 5.1984e+11 1243   40 5.5670e+11 5.1469e+11  7.55%   8.0  650s
 233541 223705 5.1998e+11 2935   39 5.5670e+11 5.1469e+11  7.55%   8.0  655s
 235573 225648 5.2809e+11  375   41 5.5670e+11 5.1469e+11  7.55%   8.0  660s
 237262 227240 5.2809e+11  805   33 5.5670e+11 5.1469e+11  7.55%   8.0  665s
 239127 229094 5.2818e+11 1237   33 5.5670e+11 5.1469e+11  7.55%   8.0  670s
 240552 230472 5.1977e+11  445   34 5.5670e+11 5.1469e+11  7.55%   8.0  675s
 242506 232397 5.3041e+11  756   51 5.5670e+11 5.1469e+11  7.55%   8.0  680s
H242628 232489                    5.567048e+11 5.1469e+11  7.55%   8.0  680s
H242982 232743                    5.567014e+11 5.1469e+11  7.55%   8.0  682s
 243416 233103 5.2995e+11  869   26 5.5670e+11 5.1469e+11  7.55%   8.0  685s
 244149 233678 5.1930e+11  492   38 5.5670e+11 5.1469e+11  7.55%   8.1  690s
 245621 235121 5.1932e+11 1881   42 5.5670e+11 5.1469e+11  7.55%   8.0  695s
 247480 236899 5.2856e+11  646   36 5.5670e+11 5.1469e+11  7.55%   8.0  700s
 250041 239437 5.2858e+11 2908   38 5.5670e+11 5.1469e+11  7.55%   8.0  705s
 251790 241130 5.2609e+11 1481   41 5.5670e+11 5.1469e+11  7.55%   8.0  710s
 253943 243261 5.2617e+11 3200   33 5.5670e+11 5.1469e+11  7.55%   8.0  715s
 255247 244471 5.2363e+11 1063   39 5.5670e+11 5.1469e+11  7.55%   8.0  720s
H255289 244511                    5.566006e+11 5.1469e+11  7.53%   8.0  720s
 257373 246565 5.3892e+11  437   55 5.5660e+11 5.1469e+11  7.53%   8.0  725s
 259774 248965 5.3891e+11 2583   41 5.5660e+11 5.1469e+11  7.53%   8.0  730s
 261110 250151 5.2188e+11  720   37 5.5660e+11 5.1469e+11  7.53%   8.0  735s
 263550 252532 5.2846e+11  721   39 5.5660e+11 5.1469e+11  7.53%   8.0  740s
 265877 254857 5.2846e+11 2728   38 5.5660e+11 5.1469e+11  7.53%   8.0  745s
 267041 255906 5.3038e+11  667   39 5.5660e+11 5.1469e+11  7.53%   8.0  750s
 269115 257978 5.3046e+11 2600   37 5.5660e+11 5.1469e+11  7.53%   8.0  755s
 271202 259986 5.2665e+11 1844   43 5.5660e+11 5.1469e+11  7.53%   8.0  760s
 273126 261707 5.2452e+11  314   40 5.5660e+11 5.1469e+11  7.53%   8.0  765s
 275040 263621 5.2454e+11  765   33 5.5660e+11 5.1469e+11  7.53%   8.0  770s
 277394 265939 5.2399e+11 1209   39 5.5660e+11 5.1469e+11  7.53%   8.0  775s
 279746 268275 5.2399e+11 3085   37 5.5660e+11 5.1469e+11  7.53%   8.0  780s
 282110 270579 5.2493e+11 1943   40 5.5660e+11 5.1469e+11  7.53%   8.0  785s
 284598 272993 5.2965e+11 1022   38 5.5660e+11 5.1469e+11  7.53%   8.0  790s
 286355 274740 5.5390e+11 2716   44 5.5660e+11 5.1469e+11  7.53%   8.0  795s
 288797 277128 5.2737e+11 2381   40 5.5660e+11 5.1469e+11  7.53%   8.0  800s
 291112 279415 5.2681e+11 1975   41 5.5660e+11 5.1469e+11  7.53%   8.0  805s
 293244 281449 5.4175e+11 3446   33 5.5660e+11 5.1469e+11  7.53%   8.0  810s
 294584 282673 5.2829e+11 1378   40 5.5660e+11 5.1469e+11  7.53%   7.9  815s
 296804 284821 5.2054e+11  265   40 5.5660e+11 5.1469e+11  7.53%   8.0  820s
 298256 286269 5.2065e+11 1160   33 5.5660e+11 5.1469e+11  7.53%   8.0  825s
 299121 286992 5.2507e+11  443   40 5.5660e+11 5.1469e+11  7.53%   8.0  830s
 301107 288978 5.2510e+11 2256   38 5.5660e+11 5.1469e+11  7.53%   8.0  835s
 302701 290480 5.3532e+11  556   40 5.5660e+11 5.1469e+11  7.53%   8.0  840s
 305189 292960 5.3544e+11 2812   38 5.5660e+11 5.1469e+11  7.53%   8.0  845s
 306699 294289 5.2008e+11 1053   39 5.5660e+11 5.1469e+11  7.53%   8.0  850s
 308527 296055 5.2024e+11 2821   39 5.5660e+11 5.1469e+11  7.53%   8.0  855s
 309509 297006 5.3606e+11  637   39 5.5660e+11 5.1469e+11  7.53%   8.0  860s
 311481 298973 5.3614e+11 1208   32 5.5660e+11 5.1469e+11  7.53%   8.0  865s
 313071 300498 5.2074e+11  895   38 5.5660e+11 5.1469e+11  7.53%   8.0  870s
 315125 302550 5.2075e+11 2729   33 5.5660e+11 5.1469e+11  7.53%   8.0  875s
 316221 303570 5.2144e+11  541   40 5.5660e+11 5.1469e+11  7.53%   8.0  880s
 318534 305883 5.2144e+11 2641   41 5.5660e+11 5.1469e+11  7.53%   8.0  885s
 320642 307945 5.2096e+11 1548   41 5.5660e+11 5.1469e+11  7.53%   8.0  890s
 322550 309809 5.2074e+11  320   39 5.5660e+11 5.1469e+11  7.53%   8.0  895s
 324891 312145 5.2074e+11 2447   41 5.5660e+11 5.1469e+11  7.53%   8.0  900s
 326275 313431 5.3162e+11  322   34 5.5660e+11 5.1469e+11  7.53%   8.0  905s
 328108 315206 5.3493e+11  665   30 5.5660e+11 5.1469e+11  7.53%   8.0  910s
H329019 315999                    5.566005e+11 5.1469e+11  7.53%   8.0  914s
 329088 316056 5.3493e+11  812   29 5.5660e+11 5.1469e+11  7.53%   8.0  915s
 330321 316912 5.3493e+11 1019   32 5.5660e+11 5.1469e+11  7.53%   8.1  920s
 331921 318418 5.2016e+11 1724   40 5.5660e+11 5.1469e+11  7.53%   8.1  925s
H332541 319036                    5.565911e+11 5.1469e+11  7.53%   8.1  927s
 333262 319718 5.3857e+11 2974   54 5.5659e+11 5.1469e+11  7.53%   8.1  930s
 335087 321470 5.2050e+11 1907   42 5.5659e+11 5.1469e+11  7.53%   8.1  935s
 336973 323285 5.2077e+11  766   40 5.5659e+11 5.1469e+11  7.53%   8.1  940s
 339074 325385 5.2077e+11 2737   41 5.5659e+11 5.1469e+11  7.53%   8.1  945s
 340436 326652 5.2141e+11  693   36 5.5659e+11 5.1469e+11  7.53%   8.1  950s
 342439 328655 5.2288e+11 2570   43 5.5659e+11 5.1469e+11  7.53%   8.1  955s
 344280 330433 5.2105e+11  677   38 5.5659e+11 5.1469e+11  7.53%   8.1  960s
 345972 332113 5.2105e+11 2191   40 5.5659e+11 5.1469e+11  7.53%   8.1  965s
 347622 333707 5.2177e+11  350   41 5.5659e+11 5.1469e+11  7.53%   8.1  970s
 349297 335382 5.2177e+11  738   36 5.5659e+11 5.1469e+11  7.53%   8.1  975s
 351005 337078 5.2177e+11 1214   34 5.5659e+11 5.1469e+11  7.53%   8.1  980s
 352110 338087 5.2134e+11  500   38 5.5659e+11 5.1469e+11  7.53%   8.1  985s
 354078 340054 5.2134e+11 2281   38 5.5659e+11 5.1469e+11  7.53%   8.1  990s
 356449 342379 5.2194e+11 1200   40 5.5659e+11 5.1469e+11  7.53%   8.1  995s
H357323 343251                    5.565910e+11 5.1469e+11  7.53%   8.1  997s

Cutting planes:
  Cover: 13

Explored 358533 nodes (2910348 simplex iterations) in 1000.01 seconds
Thread count was 1 (of 8 available processors)

Time limit reached
Best objective 5.565910131040e+11, best bound 5.146872228060e+11, gap 7.5287%
